Route #1: 15 18 45 19 36 33 32 44 24
Route #2: 41 8 46 35 29 30 22 31 25 5 43 28
Route #3: 37 38 4 26 20 39 23
Route #4: 17 48 34 47 12
Route #5: 21 27 40 9 16 14 10
Route #6: 13 6 2 7
Route #7: 42 3 11
cost 1272
